results_rootrelaxation/bin012_070_040.srr.sol
solution status: optimal solution found
objective value:                                  7.4
_var720_                            0.500000000000001 	(obj:0)
_var737_                            0.299999999999999 	(obj:3)
_var745_                                          0.6 	(obj:0)
_var757_                            0.300000000000002 	(obj:1)
_var774_                            0.200000000000002 	(obj:1)
_var779_                            0.199999999999998 	(obj:2)
_var807_                                          0.4 	(obj:0)
_var813_                                          0.3 	(obj:0)
_var821_                                          0.5 	(obj:0)
_var823_                            0.399999999999999 	(obj:1)
_var827_                                          0.5 	(obj:0)
_var835_                            0.100000000000001 	(obj:0)
_var843_                           0.0999999999999996 	(obj:1)
_var846_                            0.100000000000001 	(obj:0)
_var847_                           0.0999999999999998 	(obj:2)
_var851_                            0.299999999999999 	(obj:0)
_var857_                            0.200000000000001 	(obj:0)
_var861_                                          0.1 	(obj:2)
_var863_                                          0.4 	(obj:0)
_var866_                           0.0999999999999996 	(obj:0)
_var869_                            0.100000000000001 	(obj:2)
_var874_                           0.0999999999999995 	(obj:0)
_var875_                                          0.1 	(obj:2)
_var877_                                          0.3 	(obj:0)
_var882_                                          0.5 	(obj:0)
_var883_                           0.0999999999999984 	(obj:1)
_var887_                                          0.4 	(obj:0)
_var891_                                          0.5 	(obj:2)
_var894_                            0.400000000000001 	(obj:2)
_var895_                           0.0999999999999999 	(obj:1)
_var897_                                          0.3 	(obj:1)
_var899_                            0.100000000000001 	(obj:1)
_var902_                                          0.2 	(obj:0)
_var910_                            0.299999999999998 	(obj:0)
_var914_                            0.400000000000001 	(obj:2)
_var916_                                          0.4 	(obj:1)
_var920_                                          0.5 	(obj:0)
_var925_                            0.100000000000001 	(obj:1)
_var929_                           0.0999999999999994 	(obj:2)
_var935_                                          0.1 	(obj:2)
_var938_                           0.0999999999999999 	(obj:1)
_var940_                            0.099999999999999 	(obj:1)
