results_rootrelaxation/bin012_070_040.srr.log
SCIP version 8.0.3.5 [precision: 8 byte] [memory: block] [mode: optimized] [LP solver: Soplex 6.0.1.3] [GitHash: 438792519e]
Copyright (c) 2002-2023 Zuse Institute Berlin (ZIB)

External libraries: 
  Readline 8.1         GNU library for command line editing (gnu.org/s/readline)
  Soplex 6.0.1.3       Linear Programming Solver developed at Zuse Institute Berlin (soplex.zib.de) [GitHash: 713be0fe]
  CppAD 20180000.0     Algorithmic Differentiation of C++ algorithms developed by B. Bell (github.com/coin-or/CppAD)
  ZLIB 1.2.11          General purpose compression library by J. Gailly and M. Adler (zlib.net)
  bliss 0.77           Computing Graph Automorphism Groups by T. Junttila and P. Kaski (www.tcs.hut.fi/Software/bliss/)

user parameter file <scip.set> not found - using default parameters

srr/relaxation = TRUE

read problem <instances/bin012_070_040.srr>
============

Original problem: 
original problem has 0 variables (0 bin, 0 int, 0 impl, 0 cont) and 77 constraints

presolving:
presolving (1 rounds: 1 fast, 1 medium, 1 exhaustive):
 0 deleted vars, 0 deleted constraints, 0 added constraints, 0 tightened bounds, 0 added holes, 0 changed sides, 0 changed coefficients
 0 implications, 0 cliques
presolved problem has 0 variables (0 bin, 0 int, 0 impl, 0 cont) and 77 constraints
     77 constraints of type <linear>
Presolving Time: 0.00

 time | node  | left  |LP iter|LP it/n|mem/heur|mdpt |vars |cons |rows |cuts |sepa|confs|strbr|  dualbound   | primalbound  |  gap   | compl. 
  0.0s|     1 |     0 |     1 |     - |   710k |   0 |   1 |  77 |  77 |   0 |  0 |   0 |   0 |      --      |      --      |    Inf | unknown
r 0.1s|     1 |     0 |   933 |     - |simplero|   0 | 713 |  77 |  77 |   0 |  0 |   0 |   0 |      --      | 2.628927e+01 |    Inf | unknown
r 0.1s|     1 |     0 |   971 |     - |simplero|   0 | 724 |  77 |  77 |   0 |  0 |   0 |   0 |      --      | 2.443660e+01 |    Inf | unknown
r 0.1s|     1 |     0 |  1028 |     - |simplero|   0 | 735 |  77 |  77 |   0 |  0 |   0 |   0 |      --      | 2.238811e+01 |    Inf | unknown
r 0.1s|     1 |     0 |  1082 |     - |simplero|   0 | 746 |  77 |  77 |   0 |  0 |   0 |   0 |      --      | 2.057913e+01 |    Inf | unknown
r 0.1s|     1 |     0 |  1168 |     - |simplero|   0 | 757 |  77 |  77 |   0 |  0 |   0 |   0 |      --      | 1.838369e+01 |    Inf | unknown
r 0.1s|     1 |     0 |  1218 |     - |simplero|   0 | 768 |  77 |  77 |   0 |  0 |   0 |   0 |      --      | 1.695842e+01 |    Inf | unknown
r 0.1s|     1 |     0 |  1249 |     - |simplero|   0 | 779 |  77 |  77 |   0 |  0 |   0 |   0 |      --      | 1.587999e+01 |    Inf | unknown
r 0.1s|     1 |     0 |  1264 |     - |simplero|   0 | 779 |  77 |  77 |   0 |  0 |   0 |   0 |      --      | 1.582195e+01 |    Inf | unknown
r 0.1s|     1 |     0 |  1314 |     - |simplero|   0 | 790 |  77 |  77 |   0 |  0 |   0 |   0 |      --      | 1.397868e+01 |    Inf | unknown
r 0.1s|     1 |     0 |  1329 |     - |simplero|   0 | 790 |  77 |  77 |   0 |  0 |   0 |   0 |      --      | 1.394021e+01 |    Inf | unknown
r 0.1s|     1 |     0 |  1385 |     - |simplero|   0 | 801 |  77 |  77 |   0 |  0 |   0 |   0 |      --      | 1.301522e+01 |    Inf | unknown
r 0.1s|     1 |     0 |  1400 |     - |simplero|   0 | 801 |  77 |  77 |   0 |  0 |   0 |   0 |      --      | 1.293797e+01 |    Inf | unknown
r 0.1s|     1 |     0 |  1443 |     - |simplero|   0 | 812 |  77 |  77 |   0 |  0 |   0 |   0 |      --      | 1.185648e+01 |    Inf | unknown
r 0.1s|     1 |     0 |  1453 |     - |simplero|   0 | 812 |  77 |  77 |   0 |  0 |   0 |   0 |      --      | 1.182065e+01 |    Inf | unknown
 time | node  | left  |LP iter|LP it/n|mem/heur|mdpt |vars |cons |rows |cuts |sepa|confs|strbr|  dualbound   | primalbound  |  gap   | compl. 
r 0.1s|     1 |     0 |  1500 |     - |simplero|   0 | 823 |  77 |  77 |   0 |  0 |   0 |   0 |      --      | 1.094757e+01 |    Inf | unknown
r 0.1s|     1 |     0 |  1518 |     - |simplero|   0 | 823 |  77 |  77 |   0 |  0 |   0 |   0 |      --      | 1.088169e+01 |    Inf | unknown
r 0.1s|     1 |     0 |  1525 |     - |simplero|   0 | 823 |  77 |  77 |   0 |  0 |   0 |   0 |      --      | 1.087386e+01 |    Inf | unknown
r 0.1s|     1 |     0 |  1580 |     - |simplero|   0 | 834 |  77 |  77 |   0 |  0 |   0 |   0 |      --      | 1.032126e+01 |    Inf | unknown
r 0.1s|     1 |     0 |  1593 |     - |simplero|   0 | 834 |  77 |  77 |   0 |  0 |   0 |   0 |      --      | 1.027483e+01 |    Inf | unknown
r 0.1s|     1 |     0 |  1597 |     - |simplero|   0 | 834 |  77 |  77 |   0 |  0 |   0 |   0 |      --      | 1.026581e+01 |    Inf | unknown
r 0.1s|     1 |     0 |  1601 |     - |simplero|   0 | 834 |  77 |  77 |   0 |  0 |   0 |   0 |      --      | 1.026342e+01 |    Inf | unknown
r 0.1s|     1 |     0 |  1622 |     - |simplero|   0 | 845 |  77 |  77 |   0 |  0 |   0 |   0 |      --      | 9.930313e+00 |    Inf | unknown
r 0.1s|     1 |     0 |  1635 |     - |simplero|   0 | 845 |  77 |  77 |   0 |  0 |   0 |   0 |      --      | 9.882136e+00 |    Inf | unknown
r 0.1s|     1 |     0 |  1637 |     - |simplero|   0 | 845 |  77 |  77 |   0 |  0 |   0 |   0 |      --      | 9.880802e+00 |    Inf | unknown
r 0.1s|     1 |     0 |  1664 |     - |simplero|   0 | 856 |  77 |  77 |   0 |  0 |   0 |   0 |      --      | 9.454967e+00 |    Inf | unknown
r 0.1s|     1 |     0 |  1673 |     - |simplero|   0 | 856 |  77 |  77 |   0 |  0 |   0 |   0 |      --      | 9.361681e+00 |    Inf | unknown
r 0.1s|     1 |     0 |  1703 |     - |simplero|   0 | 867 |  77 |  77 |   0 |  0 |   0 |   0 |      --      | 9.064220e+00 |    Inf | unknown
r 0.1s|     1 |     0 |  1738 |     - |simplero|   0 | 878 |  77 |  77 |   0 |  0 |   0 |   0 |      --      | 8.665685e+00 |    Inf | unknown
r 0.1s|     1 |     0 |  1739 |     - |simplero|   0 | 878 |  77 |  77 |   0 |  0 |   0 |   0 |      --      | 8.665240e+00 |    Inf | unknown
 time | node  | left  |LP iter|LP it/n|mem/heur|mdpt |vars |cons |rows |cuts |sepa|confs|strbr|  dualbound   | primalbound  |  gap   | compl. 
r 0.1s|     1 |     0 |  1740 |     - |simplero|   0 | 878 |  77 |  77 |   0 |  0 |   0 |   0 |      --      | 8.664405e+00 |    Inf | unknown
  0.1s|     1 |     0 |  1760 |     - |  4083k |   0 | 889 |  77 |  77 |   0 |  0 |   0 |   0 |      --      | 8.664405e+00 |    Inf | unknown
r 0.1s|     1 |     0 |  1760 |     - |simplero|   0 | 889 |  77 |  77 |   0 |  0 |   0 |   0 |      --      | 8.457333e+00 |    Inf | unknown
r 0.1s|     1 |     0 |  1784 |     - |simplero|   0 | 889 |  77 |  77 |   0 |  0 |   0 |   0 |      --      | 8.103831e+00 |    Inf | unknown
r 0.1s|     1 |     0 |  1796 |     - |simplero|   0 | 889 |  77 |  77 |   0 |  0 |   0 |   0 |      --      | 8.045254e+00 |    Inf | unknown
r 0.1s|     1 |     0 |  1804 |     - |simplero|   0 | 889 |  77 |  77 |   0 |  0 |   0 |   0 |      --      | 8.040537e+00 |    Inf | unknown
r 0.1s|     1 |     0 |  1831 |     - |simplero|   0 | 899 |  77 |  77 |   0 |  0 |   0 |   0 |      --      | 7.909761e+00 |    Inf | unknown
r 0.1s|     1 |     0 |  1849 |     - |simplero|   0 | 899 |  77 |  77 |   0 |  0 |   0 |   0 |      --      | 7.815950e+00 |    Inf | unknown
r 0.1s|     1 |     0 |  1877 |     - |simplero|   0 | 909 |  77 |  77 |   0 |  0 |   0 |   0 |      --      | 7.729452e+00 |    Inf | unknown
r 0.1s|     1 |     0 |  1904 |     - |simplero|   0 | 919 |  77 |  77 |   0 |  0 |   0 |   0 |      --      | 7.598802e+00 |    Inf | unknown
r 0.1s|     1 |     0 |  1928 |     - |simplero|   0 | 924 |  77 |  77 |   0 |  0 |   0 |   0 |      --      | 7.505788e+00 |    Inf | unknown
r 0.1s|     1 |     0 |  1931 |     - |simplero|   0 | 924 |  77 |  77 |   0 |  0 |   0 |   0 |      --      | 7.503484e+00 |    Inf | unknown
r 0.1s|     1 |     0 |  1954 |     - |simplero|   0 | 932 |  77 |  77 |   0 |  0 |   0 |   0 |      --      | 7.442308e+00 |    Inf | unknown
r 0.1s|     1 |     0 |  1967 |     - |simplero|   0 | 937 |  77 |  77 |   0 |  0 |   0 |   0 |      --      | 7.422764e+00 |    Inf | unknown
r 0.1s|     1 |     0 |  1974 |     - |simplero|   0 | 940 |  77 |  77 |   0 |  0 |   0 |   0 |      --      | 7.415730e+00 |    Inf | unknown
 time | node  | left  |LP iter|LP it/n|mem/heur|mdpt |vars |cons |rows |cuts |sepa|confs|strbr|  dualbound   | primalbound  |  gap   | compl. 
r 0.1s|     1 |     0 |  1987 |     - |simplero|   0 | 942 |  77 |  77 |   0 |  0 |   0 |   0 |      --      | 7.400000e+00 |    Inf | unknown
  0.1s|     1 |     0 |  2000 |     - |  4460k |   0 | 947 |  77 |  77 |   0 |  0 |   0 |   0 | 7.400000e+00 | 7.400000e+00 |   0.00%| unknown
  0.1s|     1 |     0 |  2000 |     - |  4460k |   0 | 947 |  77 |  77 |   0 |  0 |   0 |   0 | 7.400000e+00 | 7.400000e+00 |   0.00%| unknown

SCIP Status        : problem is solved [optimal solution found]
Solving Time (sec) : 0.14
Solving Nodes      : 1
Primal Bound       : +7.40000000000000e+00 (44 solutions)
Dual Bound         : +7.40000000000000e+00
Gap                : 0.00 %

written transformed problem to file <results_rootrelaxation/bin012_070_040.srr.lp>
written transformed problem to file <results_rootrelaxation/bin012_070_040.srr.cip>

written solution information to file <results_rootrelaxation/bin012_070_040.srr.sol>



